n_res = 4;
rc = [ 13, 12, 11, 11 ];
n_tasks = 30;
d = [ 8, 5, 1, 1, 2, 7, 8, 6, 7, 8, 9, 2, 8, 7, 6, 2, 4, 8, 9, 10, 4, 7, 2, 3, 1, 8, 2, 9, 3, 5 ];
rr = [| 0, 9, 0, 0, 8, 0, 0, 0, 10, 3, 1, 4, 10, 0, 0, 0, 0, 0, 0, 0, 8, 0, 0, 0, 0, 8, 0, 0, 0, 0
      | 0, 0, 0, 0, 0, 0, 0, 0, 0, 0, 0, 0, 0, 0, 0, 0, 0, 0, 0, 0, 0, 4, 3, 10, 0, 0, 0, 0, 0, 4
      | 4, 0, 3, 2, 0, 0, 0, 3, 0, 0, 0, 0, 0, 0, 10, 6, 9, 0, 2, 5, 0, 0, 0, 0, 8, 0, 1, 0, 9, 0
      | 0, 0, 0, 0, 0, 5, 7, 0, 0, 0, 0, 0, 0, 7, 0, 0, 0, 10, 0, 0, 0, 0, 0, 0, 0, 0, 0, 3, 0, 0 |];
suc = [ { 2 }, 
        { 3 }, 
        { 4 }, 
        { 5 }, 
        { 6 }, 
        { 7 }, 
        { 8 }, 
        { 9 }, 
        { 10 }, 
        { 11 }, 
        { 12 }, 
        { 13 }, 
        { 14 }, 
        { 15 }, 
        { 16 }, 
        { 17 }, 
        { 18 }, 
        { 19 }, 
        { 20 }, 
        { 21 }, 
        { 22 }, 
        { 23 }, 
        { 24 }, 
        { 25 }, 
        { 26 }, 
        { 27 }, 
        { 28 }, 
        { 29 }, 
        { 30 }, 
        {  }]; 
